* #variable= 28 #constraint= 1 #product= 48 sizeproduct= 96
min: +2 x1 x10 -4 x1 -2 x10 +2 x1 x17 +2 x1 x18 +2 x1 x20 +2 x2 x4 -2 x2 -2 x4 +2 x2 x14 -4 x14 +2 x3 x19 -2 x3 +2 x3 x21 +2 x3 x23 -2 x3 x24 +2 x4 x5 -2 x5 +2 x4 x7 -2 x7 -2 x4 x25 +2 x5 x8 -4 x8 +2 x6 x7 +2 x6 -2 x6 x23 -2 x6 x25 -2 x6 x28 +2 x7 x13 -2 x13 -2 x7 x18 +2 x8 x9 -2 x9 +2 x8 x12 -2 x12 +2 x8 x25 +2 x9 x13 +2 x10 x24 +2 x10 x27 -2 x10 x28 +2 x11 x12 -2 x11 -2 x11 x19 +2 x11 x25 +2 x11 x28 +2 x12 x14 -2 x12 x17 +2 x13 x15 -2 x15 -2 x13 x16 +2 x14 x15 +2 x14 x16 +2 x16 x17 -2 x16 x18 -2 x17 x19 +2 x18 x23 +2 x19 x20 -2 x20 x21 -2 x20 x22 +2 x22 x26 -2 x23 x26 -2 x26 x27 +2 x26 x28 ;
+1 x1 >= 0 ;
